set I := 0 1 2 3 4 5 6 7 8 9 10 11 12 13 14 15 16 17 18 19;

param cap := 150;

param: size:=
    0 100
    1 97
    2 91
    3 89
    4 84
    5 80
    6 77
    7 73
    8 67
    9 64
    10 60
    11 57
    12 54
    13 50
    14 45
    15 40
    16 37
    17 33
    18 28
    19 23;
